2 1
3 1
3 2
4 1
4 2
4 3
5 1
5 2
5 3
5 4
6 1
6 2
6 3
6 4
6 5
7 1
7 2
7 3
7 4
7 5
7 6
8 1
8 2
8 3
8 4
8 5
8 6
8 7
9 1
9 2
9 3
9 4
9 5
9 6
9 7
9 8
10 1
10 2
10 3
10 4
10 5
10 6
10 7
10 8
10 9
11 1
11 2
11 3
11 4
11 5
11 6
11 7
11 8
11 9
11 10
12 1
12 2
12 3
12 4
12 5
12 6
12 7
12 8
12 9
12 10
12 11
13 1
13 2
13 3
13 4
13 5
13 6
13 7
13 8
13 9
13 10
13 11
13 12
14 1
14 2
14 3
14 4
14 5
14 6
14 7
14 8
14 9
14 10
14 11
14 12
14 13
15 1
15 2
15 3
15 4
15 5
15 6
15 7
15 8
15 9
15 10
15 11
15 12
15 13
15 14
16 1
16 2
16 3
16 4
16 5
16 6
16 7
16 8
16 9
16 10
16 11
16 12
16 13
16 14
16 15
18 17
19 17
19 18
20 17
20 18
20 19
21 17
21 18
21 19
21 20
22 17
22 18
22 19
22 20
22 21
23 17
23 18
23 19
23 20
23 21
23 22
24 17
24 18
24 19
24 20
24 21
24 22
24 23
25 17
25 18
25 19
25 20
25 21
25 22
25 23
25 24
26 17
26 18
26 19
26 20
26 21
26 22
26 23
26 24
26 25
27 17
27 18
27 19
27 20
27 21
27 22
27 23
27 24
27 25
27 26
28 17
28 18
28 19
28 20
28 21
28 22
28 23
28 24
28 25
28 26
28 27
29 17
29 18
29 19
29 20
29 21
29 22
29 23
29 24
29 25
29 26
29 27
29 28
30 17
30 18
30 19
30 20
30 21
30 22
30 23
30 24
30 25
30 26
30 27
30 28
30 29
31 17
31 18
31 19
31 20
31 21
31 22
31 23
31 24
31 25
31 26
31 27
31 28
31 29
31 30
32 17
32 18
32 19
32 20
32 21
32 22
32 23
32 24
32 25
32 26
32 27
32 28
32 29
32 30
32 31
33 1
33 2
33 3
33 4
33 5
33 6
33 7
33 8
33 9
33 10
33 11
33 12
33 13
33 14
33 15
33 16
33 17
33 27
33 28
33 29
33 30
33 31
33 32
36 1
36 2
36 3
36 4
36 5
36 6
36 7
36 8
36 9
36 10
36 11
36 12
36 13
36 14
36 15
36 16
36 17
36 27
36 28
36 29
36 30
36 31
36 32
36 33
41 1
41 2
41 3
41 4
41 5
41 6
41 7
41 8
41 9
41 10
41 11
41 12
41 13
41 14
41 15
41 16
41 17
41 27
41 28
41 29
41 30
41 31
41 32
41 33
41 36
43 1
43 2
43 3
43 4
43 5
43 6
43 7
43 8
43 9
43 10
43 11
43 12
43 13
43 14
43 15
43 16
43 17
43 27
43 28
43 29
43 30
43 31
43 32
43 33
43 36
43 41
45 1
45 2
45 3
45 4
45 5
45 6
45 7
45 8
45 9
45 10
45 11
45 12
45 13
45 14
45 15
45 16
45 17
45 27
45 28
45 29
45 30
45 31
45 32
45 33
45 36
45 41
45 43
47 1
47 2
47 3
47 4
47 5
47 6
47 7
47 8
47 9
47 10
47 11
47 12
47 13
47 14
47 15
47 16
47 17
47 27
47 28
47 29
47 30
47 31
47 32
47 33
47 36
48 1
48 2
48 3
48 4
48 5
48 6
48 7
48 8
48 9
48 10
48 11
48 12
48 13
48 14
48 15
48 16
48 17
48 27
48 28
48 29
48 30
48 31
48 32
48 33
48 36
48 41
48 43
48 45
48 47
51 1
51 2
51 3
51 4
51 5
51 6
51 7
51 8
51 9
51 10
51 11
51 12
51 13
51 14
51 15
51 16
51 17
51 27
51 33
51 36
51 41
51 43
51 45
51 47
51 48
54 1
54 2
54 3
54 4
54 5
54 6
54 7
54 8
54 9
54 10
54 11
54 12
54 13
54 14
54 15
54 16
54 17
54 27
54 28
54 29
54 30
54 31
54 32
54 33
54 36
54 41
54 43
54 45
54 48
54 51
56 1
56 2
56 3
56 4
56 5
56 6
56 7
56 8
56 9
56 10
56 11
56 12
56 13
56 14
56 15
56 16
56 17
56 27
56 36
56 41
56 43
56 45
56 51
56 54
57 1
57 2
57 3
57 4
57 5
57 6
57 7
57 8
57 9
57 10
57 11
57 12
57 13
57 14
57 15
57 16
57 17
57 27
57 36
57 41
57 43
57 45
57 51
57 54
57 56
59 1
59 2
59 3
59 4
59 5
59 6
59 7
59 8
59 9
59 10
59 11
59 12
59 13
59 14
59 15
59 16
59 17
59 27
59 28
59 29
59 30
59 31
59 32
59 33
59 36
59 41
59 43
59 45
59 48
59 51
59 54
59 56
59 57
60 1
60 2
60 3
60 4
60 5
60 6
60 7
60 8
60 9
60 10
60 11
60 12
60 13
60 14
60 15
60 16
60 17
60 27
60 33
60 36
60 41
60 43
60 45
60 48
60 51
60 54
61 1
61 2
61 3
61 4
61 5
61 6
61 7
61 8
61 9
61 10
61 11
61 12
61 13
61 14
61 15
61 16
61 17
61 27
61 33
61 36
61 41
61 43
61 45
61 48
61 51
61 54
61 60
62 1
62 2
62 3
62 4
62 5
62 6
62 7
62 8
62 9
62 10
62 11
62 12
62 13
62 14
62 15
62 16
62 17
62 27
62 33
62 36
62 41
62 43
62 45
62 48
62 51
62 54
62 56
62 57
62 59
62 61
63 1
63 2
63 3
63 5
63 6
63 7
63 8
63 9
63 10
63 11
63 12
63 13
63 14
63 15
63 16
63 17
63 18
63 19
63 20
63 21
63 22
63 23
63 24
63 25
63 26
63 27
63 28
63 29
63 30
63 31
63 32
64 1
64 2
64 3
64 6
64 7
64 8
64 9
64 10
64 11
64 12
64 13
64 14
64 15
64 16
64 17
64 18
64 19
64 20
64 21
64 22
64 23
64 24
64 25
64 26
64 27
64 28
64 29
64 30
64 31
64 32
64 63
65 1
65 2
65 3
65 7
65 8
65 9
65 10
65 11
65 12
65 13
65 14
65 15
65 16
65 17
65 18
65 19
65 20
65 21
65 22
65 23
65 24
65 25
65 26
65 27
65 28
65 29
65 30
65 31
65 32
65 63
65 64
66 1
66 2
66 3
66 8
66 9
66 10
66 11
66 12
66 13
66 14
66 15
66 16
66 17
66 18
66 19
66 20
66 21
66 22
66 23
66 24
66 25
66 26
66 27
66 28
66 29
66 30
66 31
66 32
66 63
66 64
66 65
67 1
67 2
67 3
67 9
67 10
67 11
67 12
67 13
67 14
67 15
67 16
67 17
67 18
67 19
67 20
67 21
67 22
67 23
67 24
67 25
67 26
67 27
67 28
67 29
67 30
67 31
67 32
67 63
67 64
67 65
67 66
68 1
68 2
68 3
68 10
68 11
68 12
68 13
68 14
68 15
68 16
68 17
68 18
68 19
68 20
68 21
68 22
68 23
68 24
68 25
68 26
68 27
68 28
68 29
68 30
68 31
68 32
68 63
68 64
68 65
68 66
68 67
69 1
69 2
69 3
69 11
69 12
69 13
69 14
69 15
69 16
69 17
69 18
69 19
69 20
69 21
69 22
69 23
69 24
69 25
69 26
69 27
69 28
69 29
69 30
69 31
69 32
69 63
69 64
69 65
69 66
69 67
69 68
70 1
70 2
70 3
70 11
70 12
70 13
70 14
70 15
70 16
70 17
70 18
70 19
70 20
70 21
70 22
70 23
70 24
70 25
70 26
70 27
70 28
70 29
70 30
70 31
70 32
70 63
70 64
70 65
70 66
70 67
70 68
70 69
71 1
71 2
71 3
71 4
71 5
71 6
71 7
71 8
71 9
71 10
71 11
71 12
71 13
71 14
71 15
71 16
71 17
71 19
71 20
71 21
71 22
71 23
71 24
71 25
71 26
71 27
71 28
71 29
71 30
71 31
71 32
71 33
71 36
71 41
71 43
71 45
71 47
71 48
71 51
71 54
71 56
71 57
71 59
71 60
71 61
71 62
72 1
72 2
72 3
72 4
72 5
72 6
72 7
72 8
72 9
72 10
72 11
72 12
72 13
72 14
72 15
72 16
72 17
72 20
72 21
72 22
72 23
72 24
72 25
72 26
72 27
72 28
72 29
72 30
72 31
72 32
72 33
72 36
72 41
72 43
72 45
72 47
72 48
72 51
72 54
72 56
72 57
72 59
72 60
72 61
72 62
72 71
73 1
73 2
73 3
73 4
73 5
73 6
73 7
73 8
73 9
73 10
73 11
73 12
73 13
73 14
73 15
73 16
73 17
73 21
73 22
73 23
73 24
73 25
73 26
73 27
73 28
73 29
73 30
73 31
73 32
73 33
73 36
73 41
73 43
73 45
73 47
73 48
73 51
73 54
73 56
73 57
73 59
73 60
73 61
73 62
73 71
73 72
74 1
74 2
74 3
74 4
74 5
74 6
74 7
74 8
74 9
74 10
74 11
74 12
74 13
74 14
74 15
74 16
74 17
74 22
74 23
74 24
74 25
74 26
74 27
74 28
74 29
74 30
74 31
74 32
74 33
74 36
74 41
74 43
74 45
74 47
74 48
74 51
74 54
74 56
74 57
74 59
74 60
74 61
74 62
74 71
74 72
74 73
75 1
75 2
75 3
75 4
75 5
75 6
75 7
75 8
75 9
75 10
75 11
75 12
75 13
75 14
75 15
75 16
75 17
75 23
75 24
75 25
75 26
75 27
75 28
75 29
75 30
75 31
75 32
75 33
75 36
75 41
75 43
75 45
75 47
75 48
75 51
75 54
75 56
75 57
75 59
75 60
75 61
75 62
75 71
75 72
75 73
75 74
76 1
76 2
76 3
76 4
76 5
76 6
76 7
76 8
76 9
76 10
76 11
76 12
76 13
76 14
76 15
76 16
76 17
76 24
76 25
76 26
76 27
76 28
76 29
76 30
76 31
76 32
76 33
76 36
76 41
76 43
76 45
76 47
76 48
76 51
76 54
76 56
76 57
76 59
76 60
76 61
76 62
76 71
76 72
76 73
76 74
76 75
77 1
77 2
77 3
77 4
77 5
77 6
77 7
77 8
77 9
77 10
77 11
77 12
77 13
77 14
77 15
77 16
77 17
77 25
77 26
77 27
77 28
77 29
77 30
77 31
77 32
77 33
77 36
77 41
77 43
77 45
77 47
77 48
77 51
77 54
77 56
77 57
77 59
77 60
77 61
77 62
77 71
77 72
77 73
77 74
77 75
77 76
78 1
78 2
78 3
78 4
78 5
78 6
78 7
78 8
78 9
78 10
78 11
78 12
78 13
78 14
78 15
78 16
78 17
78 26
78 27
78 28
78 29
78 30
78 31
78 32
78 33
78 36
78 41
78 43
78 45
78 47
78 48
78 51
78 54
78 56
78 57
78 59
78 60
78 61
78 62
78 71
78 72
78 73
78 74
78 75
78 76
78 77
79 1
79 2
79 3
79 4
79 5
79 6
79 7
79 8
79 9
79 10
79 11
79 12
79 13
79 14
79 15
79 16
79 17
79 27
79 28
79 29
79 30
79 31
79 32
79 33
79 36
79 41
79 43
79 45
79 47
79 48
79 51
79 54
79 56
79 57
79 59
79 60
79 61
79 62
79 71
79 72
79 73
79 74
79 75
79 76
79 77
79 78
80 1
80 2
80 3
80 11
80 12
80 13
80 14
80 15
80 16
80 17
80 18
80 19
80 20
80 21
80 22
80 23
80 24
80 25
80 26
80 27
80 28
80 29
80 30
80 31
80 32
80 63
80 64
80 65
80 66
80 67
80 68
80 69
80 70
81 1
81 2
81 3
81 4
81 5
81 6
81 7
81 8
81 9
81 10
81 11
81 12
81 13
81 14
81 15
81 16
81 17
81 27
81 28
81 29
81 30
81 31
81 32
81 33
81 36
81 41
81 43
81 45
81 47
81 48
81 51
81 54
81 56
81 57
81 59
81 60
81 61
81 62
81 71
81 72
81 73
81 74
81 75
81 76
81 77
81 78
81 79
83 1
83 2
83 3
83 11
83 12
83 13
83 14
83 15
83 16
83 17
83 18
83 19
83 20
83 21
83 22
83 23
83 24
83 25
83 26
83 27
83 28
83 29
83 30
83 31
83 32
83 63
83 64
83 65
83 66
83 67
83 68
83 69
83 70
83 80
84 1
84 2
84 3
84 4
84 5
84 6
84 7
84 8
84 9
84 10
84 11
84 12
84 13
84 14
84 15
84 16
84 17
84 27
84 28
84 29
84 30
84 31
84 32
84 33
84 36
84 41
84 43
84 45
84 47
84 48
84 51
84 54
84 56
84 57
84 59
84 60
84 61
84 62
84 71
84 72
84 73
84 74
84 75
84 76
84 77
84 78
84 79
84 81
86 1
86 2
86 3
86 11
86 12
86 13
86 14
86 15
86 16
86 17
86 18
86 19
86 20
86 21
86 22
86 23
86 24
86 25
86 26
86 27
86 28
86 29
86 30
86 31
86 32
86 63
86 64
86 65
86 66
86 67
86 68
86 69
86 70
86 80
86 83
87 1
87 2
87 3
87 11
87 12
87 13
87 14
87 15
87 16
87 17
87 18
87 19
87 20
87 21
87 22
87 23
87 24
87 25
87 26
87 27
87 28
87 29
87 30
87 31
87 32
87 63
87 64
87 65
87 66
87 67
87 68
87 69
87 70
87 80
87 83
87 86
88 1
88 2
88 3
88 4
88 5
88 6
88 7
88 8
88 9
88 10
88 11
88 12
88 13
88 14
88 15
88 16
88 17
88 27
88 28
88 29
88 30
88 31
88 32
88 33
88 36
88 41
88 43
88 45
88 47
88 48
88 51
88 54
88 56
88 57
88 59
88 60
88 61
88 62
88 71
88 72
88 73
88 74
88 75
88 76
88 77
88 78
88 79
88 81
88 84
90 1
90 2
90 3
90 4
90 5
90 6
90 7
90 8
90 9
90 10
90 11
90 12
90 13
90 14
90 15
90 16
90 17
90 27
90 28
90 29
90 30
90 31
90 32
90 33
90 36
90 41
90 43
90 45
90 47
90 48
90 51
90 54
90 56
90 57
90 59
90 60
90 61
90 62
90 71
90 72
90 73
90 74
90 75
90 76
90 77
90 78
90 79
90 81
90 84
90 88
92 1
92 2
92 3
92 4
92 5
92 6
92 7
92 8
92 9
92 10
92 11
92 12
92 13
92 14
92 15
92 16
92 17
92 27
92 28
92 29
92 30
92 31
92 32
92 33
92 36
92 41
92 43
92 45
92 47
92 48
92 51
92 54
92 56
92 57
92 59
92 60
92 61
92 62
92 71
92 72
92 73
92 74
92 75
92 76
92 77
92 78
92 79
92 81
92 84
92 88
92 90
95 1
95 2
95 3
95 4
95 5
95 6
95 7
95 8
95 9
95 10
95 11
95 12
95 13
95 14
95 15
95 16
95 17
95 47
95 71
95 72
95 73
95 74
95 75
95 76
95 77
95 78
95 79
95 81
95 84
95 88
95 90
95 92
97 1
97 2
97 3
97 4
97 5
97 6
97 7
97 8
97 9
97 10
97 11
97 12
97 13
97 14
97 15
97 16
97 17
97 47
97 71
97 72
97 73
97 74
97 75
97 76
97 77
97 78
97 79
97 81
97 84
97 88
97 90
97 92
103 1
103 2
103 3
103 11
103 12
103 13
103 14
103 15
103 16
103 17
103 18
103 19
103 20
103 21
103 22
103 23
103 24
103 25
103 26
103 27
103 28
103 29
103 30
103 31
103 32
103 63
103 64
103 65
103 66
103 67
103 68
103 69
103 70
103 80
103 83
103 86
103 87
106 1
106 2
106 3
106 4
106 5
106 6
106 7
106 8
106 9
106 10
106 11
106 12
106 13
106 14
106 15
106 16
106 17
106 27
106 28
106 29
106 30
106 31
106 32
106 33
106 36
106 41
106 43
106 45
106 48
106 51
106 54
106 56
106 57
106 59
106 60
106 61
106 62
106 71
106 72
106 73
106 74
106 75
106 76
106 77
106 78
106 79
106 81
106 84
106 88
106 90
106 92
113 1
113 2
113 3
113 4
113 5
113 6
113 7
113 8
113 9
113 10
113 11
113 12
113 13
113 14
113 15
113 16
113 17
113 27
113 33
113 36
113 41
113 43
113 45
113 48
113 51
113 54
113 59
113 71
113 72
113 73
113 74
113 75
113 76
113 77
113 78
113 79
113 81
113 84
113 88
113 90
113 92
113 106
114 1
114 2
114 3
114 4
114 5
114 6
114 7
114 8
114 9
114 10
114 11
114 12
114 13
114 14
114 15
114 16
114 17
114 27
114 33
114 36
114 41
114 43
114 45
114 48
114 51
114 54
114 71
114 72
114 73
114 74
114 75
114 76
114 77
114 78
114 79
114 81
114 84
114 88
114 90
114 92
114 106
121 1
121 2
121 3
121 4
121 5
121 6
121 7
121 8
121 9
121 10
121 11
121 12
121 13
121 14
121 15
121 16
121 17
121 27
121 33
121 36
121 41
121 43
121 45
121 48
121 51
121 54
121 71
121 72
121 73
121 74
121 75
121 76
121 77
121 78
121 79
121 81
121 84
121 88
121 90
121 92
121 106
124 1
124 2
124 3
124 4
124 5
124 6
124 7
124 8
124 9
124 10
124 11
124 12
124 13
124 14
124 15
124 16
124 17
124 27
124 33
124 36
124 41
124 43
124 45
124 48
124 51
124 54
124 56
124 57
124 59
124 60
124 61
124 62
124 71
124 72
124 73
124 74
124 75
124 76
124 77
124 78
124 79
124 81
124 84
124 88
124 90
124 92
124 106
126 1
126 2
126 3
126 4
126 5
126 6
126 7
126 8
126 9
126 10
126 11
126 12
126 13
126 14
126 15
126 16
126 17
126 27
126 33
126 36
126 41
126 43
126 45
126 48
126 51
126 54
126 60
126 61
126 71
126 72
126 73
126 74
126 75
126 76
126 77
126 78
126 79
126 81
126 84
126 88
126 90
126 92
126 106
126 124
129 1
129 2
129 3
129 4
129 5
129 6
129 7
129 8
129 9
129 10
129 11
129 12
129 13
129 14
129 15
129 16
129 17
129 27
129 33
129 36
129 41
129 43
129 45
129 48
129 51
129 54
129 61
129 62
129 71
129 72
129 73
129 74
129 75
129 76
129 77
129 78
129 79
129 81
129 84
129 88
129 90
129 92
129 106
129 124
132 1
132 2
132 3
132 4
132 5
132 6
132 7
132 8
132 9
132 10
132 11
132 12
132 13
132 14
132 15
132 16
132 17
132 27
132 33
132 36
132 41
132 43
132 45
132 48
132 51
132 54
132 56
132 57
132 59
132 62
132 71
132 72
132 73
132 74
132 75
132 76
132 77
132 78
132 79
132 81
132 84
132 88
132 90
132 92
132 106
132 124
134 1
134 2
134 3
134 4
134 5
134 6
134 7
134 8
134 9
134 10
134 11
134 12
134 13
134 14
134 15
134 16
134 17
134 27
134 33
134 36
134 41
134 43
134 45
134 48
134 51
134 54
134 62
134 71
134 72
134 73
134 74
134 75
134 76
134 77
134 78
134 79
134 81
134 84
134 88
134 90
134 92
134 106
134 124
134 132
135 1
135 2
135 3
135 4
135 5
135 6
135 7
135 8
135 9
135 10
135 11
135 12
135 13
135 14
135 15
135 16
135 17
135 27
135 33
135 36
135 41
135 43
135 45
135 48
135 51
135 54
135 62
135 71
135 72
135 73
135 74
135 75
135 76
135 77
135 78
135 79
135 81
135 84
135 88
135 90
135 92
135 106
135 124
135 132
140 1
140 2
140 3
140 4
140 5
140 6
140 7
140 8
140 9
140 10
140 11
140 12
140 13
140 14
140 15
140 16
140 17
140 27
140 28
140 29
140 30
140 31
140 32
140 33
140 36
140 41
140 43
140 45
140 48
140 51
140 54
140 56
140 57
140 59
140 62
140 71
140 72
140 73
140 74
140 75
140 76
140 77
140 78
140 79
140 81
140 84
140 88
140 90
140 92
140 106
140 124
140 132
141 1
141 2
141 3
141 4
141 5
141 6
141 7
141 8
141 9
141 10
141 11
141 12
141 13
141 14
141 15
141 16
141 17
141 27
141 33
141 36
141 41
141 43
141 45
141 48
141 51
141 54
141 59
141 62
141 71
141 72
141 73
141 74
141 75
141 76
141 77
141 78
141 79
141 81
141 84
141 88
141 90
141 92
141 106
141 124
141 132
141 140
142 1
142 2
142 3
142 4
142 5
142 6
142 7
142 8
142 9
142 10
142 11
142 12
142 13
142 14
142 15
142 16
142 17
142 27
142 33
142 36
142 41
142 43
142 45
142 48
142 51
142 54
142 59
142 62
142 71
142 72
142 73
142 74
142 75
142 76
142 77
142 78
142 79
142 81
142 84
142 88
142 90
142 92
142 106
142 124
142 132
142 140
145 1
145 2
145 3
145 4
145 5
145 6
145 7
145 8
145 9
145 10
145 11
145 12
145 13
145 14
145 15
145 16
145 17
145 27
145 33
145 36
145 41
145 43
145 45
145 48
145 54
145 59
145 62
145 71
145 72
145 73
145 74
145 75
145 76
145 77
145 78
145 79
145 81
145 84
145 88
145 90
145 92
145 106
145 132
145 140
146 1
146 2
146 3
146 4
146 5
146 6
146 7
146 8
146 9
146 10
146 11
146 12
146 13
146 14
146 15
146 16
146 17
146 27
146 33
146 36
146 41
146 43
146 45
146 48
146 54
146 59
146 62
146 71
146 72
146 73
146 74
146 75
146 76
146 77
146 78
146 79
146 81
146 84
146 88
146 90
146 92
146 106
146 132
146 140
149 1
149 2
149 3
149 4
149 5
149 6
149 7
149 8
149 9
149 10
149 11
149 12
149 13
149 14
149 15
149 16
149 17
149 27
149 33
149 36
149 41
149 43
149 45
149 48
149 51
149 54
149 59
149 71
149 72
149 73
149 74
149 75
149 76
149 77
149 78
149 79
149 81
149 84
149 88
149 90
149 92
149 106
159 1
159 2
159 3
159 4
159 5
159 6
159 7
159 8
159 9
159 10
159 11
159 12
159 13
159 14
159 15
159 16
159 17
159 27
159 33
159 36
159 41
159 43
159 45
159 48
159 51
159 54
159 59
159 62
159 71
159 72
159 73
159 74
159 75
159 76
159 77
159 78
159 79
159 81
159 84
159 88
159 90
159 92
159 106
159 124
159 132
159 140
160 1
160 2
160 3
160 4
160 5
160 6
160 7
160 8
160 9
160 10
160 11
160 12
160 13
160 14
160 15
160 16
160 17
160 27
160 33
160 36
160 41
160 43
160 45
160 48
160 51
160 54
160 59
160 62
160 71
160 72
160 73
160 74
160 75
160 76
160 77
160 78
160 79
160 81
160 84
160 88
160 90
160 92
160 106
160 124
160 132
160 140
160 159
161 1
161 2
161 3
161 4
161 5
161 6
161 7
161 8
161 9
161 10
161 11
161 12
161 13
161 14
161 15
161 16
161 17
161 27
161 33
161 36
161 41
161 43
161 45
161 48
161 51
161 54
161 59
161 62
161 71
161 72
161 73
161 74
161 75
161 76
161 77
161 78
161 79
161 81
161 84
161 88
161 90
161 92
161 106
161 124
161 132
161 140
162 1
162 2
162 3
162 4
162 5
162 6
162 7
162 8
162 9
162 10
162 11
162 12
162 13
162 14
162 15
162 16
162 17
162 27
162 33
162 36
162 41
162 43
162 45
162 48
162 51
162 54
162 56
162 57
162 59
162 62
162 71
162 72
162 73
162 74
162 75
162 76
162 77
162 78
162 79
162 81
162 84
162 88
162 90
162 92
162 106
162 124
162 132
162 140
163 1
163 2
163 3
163 4
163 5
163 6
163 7
163 8
163 9
163 10
163 11
163 12
163 13
163 14
163 15
163 16
163 17
163 27
163 33
163 36
163 41
163 43
163 45
163 48
163 51
163 54
163 59
163 62
163 71
163 72
163 73
163 74
163 75
163 76
163 77
163 78
163 79
163 81
163 84
163 88
163 90
163 92
163 106
163 124
163 132
163 140
163 162
164 1
164 2
164 3
164 4
164 5
164 6
164 7
164 8
164 9
164 10
164 11
164 12
164 13
164 14
164 15
164 16
164 17
164 27
164 36
164 41
164 43
164 45
164 51
164 54
164 56
164 59
164 62
164 71
164 72
164 73
164 74
164 75
164 76
164 77
164 78
164 79
164 81
164 84
164 88
164 90
164 92
164 106
164 124
164 132
164 140
164 162
166 1
166 2
166 3
166 4
166 5
166 6
166 7
166 8
166 9
166 10
166 11
166 12
166 13
166 14
166 15
166 16
166 17
166 27
166 36
166 41
166 43
166 45
166 51
166 54
166 59
166 62
166 71
166 72
166 73
166 74
166 75
166 76
166 77
166 78
166 79
166 81
166 84
166 88
166 90
166 92
166 106
166 124
166 132
166 140
166 162
166 164
172 1
172 2
172 3
172 4
172 5
172 6
172 7
172 8
172 9
172 10
172 11
172 12
172 13
172 14
172 15
172 16
172 17
172 27
172 36
172 41
172 43
172 45
172 51
172 54
172 57
172 59
172 62
172 71
172 72
172 73
172 74
172 75
172 76
172 77
172 78
172 79
172 81
172 84
172 88
172 90
172 92
172 106
172 124
172 132
172 140
172 162
174 1
174 2
174 3
174 4
174 5
174 6
174 7
174 8
174 9
174 10
174 11
174 12
174 13
174 14
174 15
174 16
174 17
174 27
174 36
174 41
174 43
174 45
174 51
174 54
174 57
174 59
174 62
174 71
174 72
174 73
174 74
174 75
174 76
174 77
174 78
174 79
174 81
174 84
174 88
174 90
174 92
174 106
174 124
174 132
174 140
174 162
174 172
175 1
175 2
175 3
175 4
175 5
175 6
175 7
175 8
175 9
175 10
175 11
175 12
175 13
175 14
175 15
175 16
175 17
175 27
175 36
175 41
175 43
175 45
175 51
175 54
175 57
175 59
175 62
175 71
175 72
175 73
175 74
175 75
175 76
175 77
175 78
175 79
175 81
175 84
175 88
175 90
175 92
175 106
175 124
175 132
175 140
175 172
175 174
176 1
176 2
176 3
176 4
176 5
176 6
176 7
176 8
176 9
176 10
176 11
176 12
176 13
176 14
176 15
176 16
176 17
176 27
176 36
176 41
176 43
176 45
176 51
176 54
176 57
176 59
176 62
176 71
176 72
176 73
176 74
176 75
176 76
176 77
176 78
176 79
176 81
176 84
176 88
176 90
176 92
176 106
176 124
176 132
176 140
176 172
176 174
177 1
177 2
177 3
177 4
177 5
177 6
177 7
177 8
177 9
177 10
177 11
177 12
177 13
177 14
177 15
177 16
177 17
177 27
177 36
177 41
177 43
177 45
177 51
177 54
177 57
177 59
177 62
177 71
177 72
177 73
177 74
177 75
177 76
177 77
177 78
177 79
177 81
177 84
177 88
177 90
177 92
177 106
177 124
177 132
177 140
177 172
177 174
177 176
178 1
178 2
178 3
178 4
178 5
178 6
178 7
178 8
178 9
178 10
178 11
178 12
178 13
178 14
178 15
178 16
178 17
178 27
178 36
178 41
178 43
178 45
178 51
178 54
178 57
178 59
178 62
178 71
178 72
178 73
178 74
178 75
178 76
178 77
178 78
178 79
178 81
178 84
178 88
178 90
178 92
178 106
178 124
178 132
178 140
178 172
178 174
178 176
179 1
179 2
179 3
179 4
179 5
179 6
179 7
179 8
179 9
179 10
179 11
179 12
179 13
179 14
179 15
179 16
179 17
179 27
179 36
179 41
179 43
179 45
179 51
179 54
179 57
179 59
179 62
179 71
179 72
179 73
179 74
179 75
179 76
179 77
179 78
179 79
179 81
179 84
179 88
179 90
179 92
179 106
179 124
179 132
179 140
179 172
179 174
180 1
180 2
180 3
180 4
180 5
180 6
180 7
180 8
180 9
180 10
180 11
180 12
180 13
180 14
180 15
180 16
180 17
180 27
180 36
180 41
180 43
180 45
180 51
180 54
180 57
180 59
180 62
180 71
180 72
180 73
180 74
180 75
180 76
180 77
180 78
180 79
180 81
180 84
180 88
180 90
180 92
180 106
180 124
180 132
180 140
180 172
181 1
181 2
181 3
181 4
181 5
181 6
181 7
181 8
181 9
181 10
181 11
181 12
181 13
181 14
181 15
181 16
181 17
181 27
181 36
181 41
181 43
181 51
181 54
181 57
181 59
181 62
181 71
181 72
181 73
181 74
181 75
181 76
181 77
181 78
181 79
181 81
181 84
181 88
181 90
181 92
181 106
181 132
181 140
181 172
182 1
182 2
182 3
182 4
182 5
182 6
182 7
182 8
182 9
182 10
182 11
182 12
182 13
182 14
182 15
182 16
182 17
182 27
182 36
182 41
182 43
182 51
182 54
182 57
182 59
182 62
182 71
182 72
182 73
182 74
182 75
182 76
182 77
182 78
182 79
182 81
182 84
182 88
182 90
182 92
182 106
182 132
182 140
182 172
183 1
183 2
183 3
183 4
183 5
183 6
183 7
183 8
183 9
183 10
183 11
183 12
183 13
183 14
183 15
183 16
183 17
183 27
183 36
183 41
183 43
183 51
183 54
183 57
183 59
183 62
183 71
183 72
183 73
183 74
183 75
183 76
183 77
183 78
183 79
183 81
183 84
183 88
183 90
183 92
183 106
183 132
183 140
183 172
184 1
184 2
184 3
184 4
184 5
184 6
184 7
184 8
184 9
184 10
184 11
184 12
184 13
184 14
184 15
184 16
184 17
184 27
184 36
184 41
184 43
184 51
184 54
184 57
184 59
184 62
184 71
184 72
184 73
184 74
184 75
184 76
184 77
184 78
184 79
184 81
184 84
184 88
184 90
184 92
184 106
184 132
184 140
184 172
190 1
190 2
190 3
190 4
190 5
190 6
190 7
190 8
190 9
190 10
190 11
190 12
190 13
190 14
190 15
190 16
190 17
190 27
190 36
190 41
190 43
190 45
190 48
190 51
190 54
190 59
190 62
190 71
190 72
190 73
190 74
190 75
190 76
190 77
190 78
190 79
190 81
190 84
190 88
190 90
190 92
190 106
190 124
190 132
190 140
190 162
191 1
191 2
191 3
191 4
191 5
191 6
191 7
191 8
191 9
191 10
191 11
191 12
191 13
191 14
191 15
191 16
191 17
191 27
191 36
191 41
191 43
191 45
191 48
191 51
191 54
191 56
191 59
191 62
191 71
191 72
191 73
191 74
191 75
191 76
191 77
191 78
191 79
191 81
191 84
191 88
191 90
191 92
191 106
191 124
191 132
191 140
191 162
191 190
193 1
193 2
193 3
193 4
193 5
193 6
193 7
193 8
193 9
193 10
193 11
193 12
193 13
193 14
193 15
193 16
193 17
193 27
193 36
193 41
193 43
193 45
193 48
193 51
193 54
193 59
193 62
193 71
193 72
193 73
193 74
193 75
193 76
193 77
193 78
193 79
193 81
193 84
193 88
193 90
193 92
193 106
193 124
193 132
193 140
193 162
193 190
193 191
195 1
195 2
195 3
195 4
195 5
195 6
195 7
195 8
195 9
195 10
195 11
195 12
195 13
195 14
195 15
195 16
195 17
195 27
195 36
195 41
195 43
195 45
195 51
195 54
195 56
195 59
195 62
195 71
195 72
195 73
195 74
195 75
195 76
195 77
195 78
195 79
195 81
195 84
195 88
195 90
195 92
195 106
195 124
195 132
195 140
195 162
195 190
195 191
195 193
197 1
197 2
197 3
197 4
197 5
197 6
197 7
197 8
197 9
197 10
197 11
197 12
197 13
197 14
197 15
197 16
197 17
197 27
197 36
197 41
197 43
197 45
197 51
197 54
197 59
197 62
197 71
197 72
197 73
197 74
197 75
197 76
197 77
197 78
197 79
197 81
197 84
197 88
197 90
197 92
197 106
197 124
197 132
197 140
197 162
197 190
197 191
197 193
197 195
198 1
198 2
198 3
198 4
198 5
198 6
198 7
198 8
198 9
198 10
198 11
198 12
198 13
198 14
198 15
198 16
198 17
198 27
198 36
198 41
198 43
198 45
198 51
198 54
198 59
198 62
198 71
198 72
198 73
198 74
198 75
198 76
198 77
198 78
198 79
198 81
198 84
198 88
198 90
198 92
198 106
198 124
198 132
198 140
198 162
198 190
198 191
198 193
198 195
199 1
199 2
199 3
199 4
199 5
199 6
199 7
199 8
199 9
199 10
199 11
199 12
199 13
199 14
199 15
199 16
199 17
199 27
199 36
199 41
199 43
199 45
199 51
199 54
199 59
199 62
199 71
199 72
199 73
199 74
199 75
199 76
199 77
199 78
199 79
199 81
199 84
199 88
199 90
199 92
199 106
199 124
199 132
199 140
199 162
199 190
199 191
199 193
199 195
199 198
200 1
200 2
200 3
200 4
200 5
200 6
200 7
200 8
200 9
200 10
200 11
200 12
200 13
200 14
200 15
200 16
200 17
200 27
200 36
200 41
200 43
200 45
200 51
200 54
200 59
200 62
200 71
200 72
200 73
200 74
200 75
200 76
200 77
200 78
200 79
200 81
200 84
200 88
200 90
200 92
200 106
200 124
200 132
200 140
200 162
200 190
200 191
200 193
200 195
201 1
201 2
201 3
201 4
201 5
201 6
201 7
201 8
201 9
201 10
201 11
201 12
201 13
201 14
201 15
201 16
201 17
201 27
201 36
201 41
201 43
201 45
201 51
201 54
201 56
201 59
201 62
201 71
201 72
201 73
201 74
201 75
201 76
201 77
201 78
201 79
201 81
201 84
201 88
201 90
201 92
201 106
201 124
201 132
201 140
201 162
201 190
201 191
201 195
201 200
202 1
202 2
202 3
202 4
202 5
202 6
202 7
202 8
202 9
202 10
202 11
202 12
202 13
202 14
202 15
202 16
202 17
202 27
202 36
202 41
202 43
202 45
202 51
202 54
202 59
202 62
202 71
202 72
202 73
202 74
202 75
202 76
202 77
202 78
202 79
202 81
202 84
202 88
202 90
202 92
202 106
202 124
202 132
202 140
202 162
202 191
202 195
202 200
202 201
203 1
203 2
203 3
203 4
203 5
203 6
203 7
203 8
203 9
203 10
203 11
203 12
203 13
203 14
203 15
203 16
203 17
203 27
203 36
203 41
203 43
203 45
203 51
203 54
203 59
203 62
203 71
203 72
203 73
203 74
203 75
203 76
203 77
203 78
203 79
203 81
203 84
203 88
203 90
203 92
203 106
203 124
203 132
203 140
203 162
203 191
203 195
203 201
206 1
206 2
206 3
206 4
206 5
206 6
206 7
206 8
206 9
206 10
206 11
206 12
206 13
206 14
206 15
206 16
206 17
206 27
206 36
206 41
206 43
206 45
206 51
206 54
206 56
206 59
206 62
206 71
206 72
206 73
206 74
206 75
206 76
206 77
206 78
206 79
206 81
206 84
206 88
206 90
206 92
206 106
206 124
206 132
206 140
206 162
206 195
206 201
207 1
207 2
207 3
207 4
207 5
207 6
207 7
207 8
207 9
207 10
207 11
207 12
207 13
207 14
207 15
207 16
207 17
207 27
207 36
207 41
207 43
207 45
207 51
207 54
207 56
207 59
207 62
207 71
207 72
207 73
207 74
207 75
207 76
207 77
207 78
207 79
207 81
207 84
207 88
207 90
207 92
207 106
207 124
207 132
207 140
207 162
207 195
208 1
208 2
208 3
208 4
208 5
208 6
208 7
208 8
208 9
208 10
208 11
208 12
208 13
208 14
208 15
208 16
208 17
208 27
208 36
208 41
208 43
208 45
208 51
208 54
208 56
208 59
208 62
208 71
208 72
208 73
208 74
208 75
208 76
208 77
208 78
208 79
208 81
208 84
208 88
208 90
208 92
208 106
208 124
208 132
208 140
208 162
208 207
211 1
211 2
211 3
211 4
211 5
211 6
211 7
211 8
211 9
211 10
211 11
211 12
211 13
211 14
211 15
211 16
211 17
211 27
211 33
211 36
211 41
211 43
211 45
211 48
211 51
211 54
211 71
211 72
211 73
211 74
211 75
211 76
211 77
211 78
211 79
211 81
211 84
211 88
211 90
211 92
211 106
49